flow=[(0,4,0)(0,6,2)(0,7,1)(0,8,0)(1,3,1)(1,6,3)(1,7,1)(1,9,1)(2,6,2)(2,7,1)(2,8,1)(2,10,1)(3,1,1)(3,6,2)(3,7,1)(3,10,1)(3,11,1)(3,15,1)(4,0,2)(4,5,2)(4,6,2)(4,7,3)(4,9,1)(5,0,1)(5,6,2)(6,3,2)(6,4,2)(6,5,4)(6,7,2)(6,10,3)(6,11,2)(7,3,1)(7,8,1)(7,9,1)(8,1,2)(8,2,1)(8,4,1)(8,7,1)(9,0,1)(9,4,4)(9,5,1)(9,6,9)(9,7,1)(9,13,6)(10,6,1)(10,7,2)(11,2,1)(11,4,1)(11,6,2)(11,7,1)(11,8,1)(11,9,1)(11,10,1)(11,15,1)(13,8,1)(14,7,1)(14,10,1)(14,11,1)(14,13,1)(15,7,1)(2,2,1)(3,3,1)(6,6,4)(7,7,1)(9,9,1)(10,10,3)(11,11,1)(12,12,1)];
